db/data/4571622131434552189421916785332007.z3.out
sat
-------------------
34.616213727
